/*********************************************
 * OPL 12.6.0.0 Data
 * Author: Adrian Rodriguez Bazaga, Pau Rodriguez Esmerats
 * Creation Date: 06/12/2017 at 23:03:08
 *********************************************/

nNurses=284;
maxConsec=2;
maxPresence=7;
maxHours=5;
minHours=1;
hours=24;
demand= [43 34 68 64 34 68 64 37 45 28 8 12 10 13 10 10 5 6 2 1 37 74 37 65  ];
